
Log started (V11.0.0) Wed Apr 16 12:56:49 2008

Tried aggregator 1 time.
Reduced MIP has 110 rows, 1001 columns, and 2010 nonzeros.
Presolve time =   -0.00 sec.
Clique table members: 100.
MIP emphasis: balance optimality and feasibility.
MIP search method: dynamic search.
Parallel mode: none, using 1 thread.
Root relaxation solution time =    0.01 sec.

        Nodes                                         Cuts/
   Node  Left     Objective  IInf  Best Integer     Best Node    ItCnt     Gap

*     0+    0                        14775.0000     1087.8066      167   92.64%
*     0+    0                         1104.0000     1087.8066      167    1.47%
      0     0     1088.4867    21     1104.0000      Fract: 6      171    1.41%
      0     0     1089.4299    33     1104.0000       Cuts: 8      195    1.32%
      0     0     1089.8074    37     1104.0000       Cuts: 8      212    1.29%
      0     0     1090.0086    48     1104.0000       Cuts: 9      227    1.27%
      0     0     1090.1348    49     1104.0000       Cuts: 6      244    1.26%
      0     0     1090.1742    52     1104.0000       Cuts: 5      252    1.25%
      0     0     1090.3083    48     1104.0000    MIRcuts: 1      269    1.24%
      0     0     1090.3598    56     1104.0000    MIRcuts: 5      279    1.24%
*     0+    0                         1103.0000     1090.3598      279    1.15%
*     0+    0                         1096.0000     1090.3598      279    0.51%

Repeating presolve.
Tried aggregator 1 time.
MIP Presolve eliminated 0 rows and 338 columns.
Reduced MIP has 110 rows, 663 columns, and 1334 nonzeros.
Tried aggregator 1 time.
Represolve time =    0.03 sec.
Clique table members: 100.
MIP emphasis: balance optimality and feasibility.
MIP search method: dynamic search.
Parallel mode: none, using 1 thread.
Root relaxation solution time =    0.02 sec.

        Nodes                                         Cuts/
   Node  Left     Objective  IInf  Best Integer     Best Node    ItCnt     Gap

      0     0     1091.0000    47     1096.0000     1091.0000      255    0.46%
      0     2     1091.0000    47     1096.0000     1091.0000      255    0.46%
    100    76     1094.0000    40     1096.0000     1091.0000     3395    0.46%
    200   123    infeasible           1096.0000     1091.0000     9072    0.46%
    300   201     1094.0274    42     1096.0000     1091.0000    13251    0.46%
    400   236        cutoff           1096.0000     1093.0000    18204    0.27%
    500   284     1095.0000    36     1096.0000     1093.0000    25857    0.27%
    600   277     1094.0000    33     1096.0000     1093.0000    30986    0.27%
    700   266     1095.0000    47     1096.0000     1093.0000    37669    0.27%
    800   252     1094.0000    37     1096.0000     1093.0000    45404    0.27%
*   801+  141                         1095.0000     1093.0000    45430    0.18%
    900   147     1094.0000    80     1095.0000     1094.0000    55521    0.09%
   1000   139        cutoff           1095.0000     1094.0000    76531    0.09%
Elapsed time =  12.25 sec. (tree size =  0.05 MB, solutions = 5)
   1100   151    infeasible           1095.0000     1094.0000    91914    0.09%
   1200   134        cutoff           1095.0000     1094.0000   110808    0.09%
   1300    96    infeasible           1095.0000     1094.0000   132837    0.09%
   1400    66        cutoff           1095.0000     1094.0000   156877    0.09%
   1500     8    infeasible           1095.0000     1094.0000   182417    0.09%

Cover cuts applied:  363
Mixed integer rounding cuts applied:  10
Zero-half cuts applied:  1
Gomory fractional cuts applied:  4

Solution pool: 5 solutions saved.

MIP - Integer optimal solution:  Objective = 1.0950000000e+003
Solution time =   26.26 sec.  Iterations = 195347  Nodes = 1553


Incumbent solution
Variable Name           Solution Value
Cmax                       1095.000000
X_1_1                         1.000000
X_2_8                         1.000000
X_3_9                         1.000000
X_4_4                         1.000000
X_5_1                         1.000000
X_6_9                         1.000000
X_7_6                         1.000000
X_8_7                         1.000000
X_9_8                         1.000000
X_10_5                        1.000000
X_11_9                        1.000000
X_12_5                        1.000000
X_13_7                        1.000000
X_14_7                        1.000000
X_15_4                        1.000000
X_16_6                        1.000000
X_17_10                       1.000000
X_18_8                        1.000000
X_19_1                        1.000000
X_20_5                        1.000000
X_21_9                        1.000000
X_22_6                        1.000000
X_23_1                        1.000000
X_24_3                        1.000000
X_25_7                        1.000000
X_26_7                        1.000000
X_27_8                        1.000000
X_28_2                        1.000000
X_29_3                        1.000000
X_30_1                        1.000000
X_31_9                        1.000000
X_32_2                        1.000000
X_33_4                        1.000000
X_34_7                        1.000000
X_35_3                        1.000000
X_36_8                        1.000000
X_37_3                        1.000000
X_38_3                        1.000000
X_39_1                        1.000000
X_40_10                       1.000000
X_41_2                        1.000000
X_42_3                        1.000000
X_43_10                       1.000000
X_44_6                        1.000000
X_45_2                        1.000000
X_46_5                        1.000000
X_47_8                        1.000000
X_48_2                        1.000000
X_49_9                        1.000000
X_50_4                        1.000000
X_51_4                        1.000000
X_52_3                        1.000000
X_53_5                        1.000000
X_54_8                        1.000000
X_55_4                        1.000000
X_56_5                        1.000000
X_57_5                        1.000000
X_58_6                        1.000000
X_59_2                        1.000000
X_60_4                        1.000000
X_61_7                        1.000000
X_62_6                        1.000000
X_63_1                        1.000000
X_64_3                        1.000000
X_65_6                        1.000000
X_66_5                        1.000000
X_67_7                        1.000000
X_68_10                       1.000000
X_69_5                        1.000000
X_70_9                        1.000000
X_71_10                       1.000000
X_72_2                        1.000000
X_73_8                        1.000000
X_74_6                        1.000000
X_75_4                        1.000000
X_76_7                        1.000000
X_77_2                        1.000000
X_78_6                        1.000000
X_79_8                        1.000000
X_80_1                        1.000000
X_81_7                        1.000000
X_82_1                        1.000000
X_83_10                       1.000000
X_84_2                        1.000000
X_85_10                       1.000000
X_86_9                        1.000000
X_87_4                        1.000000
X_88_9                        1.000000
X_89_3                        1.000000
X_90_2                        1.000000
X_91_10                       1.000000
X_92_4                        1.000000
X_93_1                        1.000000
X_94_6                        1.000000
X_95_5                        1.000000
X_96_10                       1.000000
X_97_9                        1.000000
X_98_3                        1.000000
X_99_10                       1.000000
X_100_8                       1.000000
All other variables in the range 1-1001 are 0.
